(set-logic QF_S)
(declare-fun var0 () Int)
(declare-fun var1 () Int)
(declare-fun var2 () String)
(declare-fun var3 () String)
(declare-fun var4 () String)
(declare-fun var5 () String)
(declare-fun var6 () Int)
(assert (< 120 var0))
(assert (<= var1 136))
(assert (<= (str.len var2) (str.len var3)))
(assert (> (str.indexof var4 var5 var6) (str.len var5)))
(check-sat)